NAME : st68_TR
TYPE : TSP
DIMENSION : 20
EDGE_WEIGHT_TYPE : EUC_2D
NODE_COORD_SECTION
1 64 96
13 78 92
15 95 57
16 57 91
22 76 73
23 67 88
24 93 54
29 78 94
31 82 88
35 95 86
36 67 99
38 75 81
47 58 85
53 56 63
57 89 60
59 81 76
63 79 70
66 74 67
69 83 86
70 84 94
EOF
